\ This file has been generated by DOcplex
\ ENCODING=ISO-8859-1
\Problem name: minla_fav

Minimize
 obj: cmax
Subject To
 c1: x_1_0 - x_0_0 >= 1
 c2: x_2_0 - x_1_0 >= 3
 c3: x_0_1 - x_1_1 >= 8
 c4: x_2_1 - x_0_1 >= 5
 c5: x_2_2 - x_0_2 >= 5
 c6: x_1_2 - x_2_2 >= 4
 c7: x_0_3 - x_2_3 >= 4
 c8: x_1_3 - x_0_3 >= 10
 c9: x_0_0 - x_0_1 + 66 z_0_0_1 >= 5
 c10: x_0_1 - x_0_0 - 66 z_0_0_1 >= -65
 c11: x_0_0 - x_0_2 + 66 z_0_0_2 >= 5
 c12: x_0_2 - x_0_0 - 66 z_0_0_2 >= -65
 c13: x_0_0 - x_0_3 + 66 z_0_0_3 >= 10
 c14: x_0_3 - x_0_0 - 66 z_0_0_3 >= -65
 c15: x_0_1 - x_0_2 + 66 z_0_1_2 >= 5
 c16: x_0_2 - x_0_1 - 66 z_0_1_2 >= -61
 c17: x_0_1 - x_0_3 + 66 z_0_1_3 >= 10
 c18: x_0_3 - x_0_1 - 66 z_0_1_3 >= -61
 c19: x_0_2 - x_0_3 + 66 z_0_2_3 >= 10
 c20: x_0_3 - x_0_2 - 66 z_0_2_3 >= -61
 c21: x_1_0 - x_1_1 + 66 z_1_0_1 >= 8
 c22: x_1_1 - x_1_0 - 66 z_1_0_1 >= -63
 c23: x_1_0 - x_1_2 + 66 z_1_0_2 >= 8
 c24: x_1_2 - x_1_0 - 66 z_1_0_2 >= -63
 c25: x_1_0 - x_1_3 + 66 z_1_0_3 >= 6
 c26: x_1_3 - x_1_0 - 66 z_1_0_3 >= -63
 c27: x_1_1 - x_1_2 + 66 z_1_1_2 >= 8
 c28: x_1_2 - x_1_1 - 66 z_1_1_2 >= -58
 c29: x_1_1 - x_1_3 + 66 z_1_1_3 >= 6
 c30: x_1_3 - x_1_1 - 66 z_1_1_3 >= -58
 c31: x_1_2 - x_1_3 + 66 z_1_2_3 >= 6
 c32: x_1_3 - x_1_2 - 66 z_1_2_3 >= -58
 c33: x_2_0 - x_2_1 + 66 z_2_0_1 >= 10
 c34: x_2_1 - x_2_0 - 66 z_2_0_1 >= -64
 c35: x_2_0 - x_2_2 + 66 z_2_0_2 >= 4
 c36: x_2_2 - x_2_0 - 66 z_2_0_2 >= -64
 c37: x_2_0 - x_2_3 + 66 z_2_0_3 >= 4
 c38: x_2_3 - x_2_0 - 66 z_2_0_3 >= -64
 c39: x_2_1 - x_2_2 + 66 z_2_1_2 >= 4
 c40: x_2_2 - x_2_1 - 66 z_2_1_2 >= -56
 c41: x_2_1 - x_2_3 + 66 z_2_1_3 >= 4
 c42: x_2_3 - x_2_1 - 66 z_2_1_3 >= -56
 c43: x_2_2 - x_2_3 + 66 z_2_2_3 >= 4
 c44: x_2_3 - x_2_2 - 66 z_2_2_3 >= -62
 c45: cmax - x_2_0 >= 2
 c46: cmax - x_2_1 >= 10
 c47: cmax - x_1_2 >= 8
 c48: cmax - x_1_3 >= 6

Lazy Constraints
 l1: x_0_0 + 5 z_0_0_1 + 5 z_0_0_2 + 10 z_0_0_3 >= 20
 l2: x_0_1 - z_0_0_1 + 5 z_0_1_2 + 10 z_0_1_3 >= 15
 l3: x_0_2 - z_0_0_2 - 5 z_0_1_2 + 10 z_0_2_3 >= 10
 l4: x_0_3 - z_0_0_3 - 5 z_0_1_3 - 5 z_0_2_3 >= 0
 l5: x_1_0 + 8 z_1_0_1 + 8 z_1_0_2 + 6 z_1_0_3 >= 22
 l6: x_1_1 - 3 z_1_0_1 + 8 z_1_1_2 + 6 z_1_1_3 >= 14
 l7: x_1_2 - 3 z_1_0_2 - 8 z_1_1_2 + 6 z_1_2_3 >= 6
 l8: x_1_3 - 3 z_1_0_3 - 8 z_1_1_3 - 8 z_1_2_3 >= 0
 l9: x_2_0 + 10 z_2_0_1 + 4 z_2_0_2 + 4 z_2_0_3 >= 18
 l10: x_2_1 - 2 z_2_0_1 + 4 z_2_1_2 + 4 z_2_1_3 >= 8
 l11: x_2_2 - 2 z_2_0_2 - 10 z_2_1_2 + 4 z_2_2_3 >= 4
 l12: x_2_3 - 2 z_2_0_3 - 10 z_2_1_3 - 4 z_2_2_3 >= 0
 l13: x_0_1 - z_0_0_1 >= 0
 l14: x_0_0 + 13 z_0_0_1 >= 13
 l15: x_0_2 - z_0_0_2 >= 0
 l16: x_0_0 + 5 z_0_0_2 >= 5
 l17: x_0_2 - 13 z_0_1_2 >= 0
 l18: x_0_1 + 5 z_0_1_2 >= 5
 l19: x_0_3 - z_0_0_3 >= 0
 l20: x_0_0 + 14 z_0_0_3 >= 14
 l21: x_0_3 - 13 z_0_1_3 >= 0
 l22: x_0_1 + 14 z_0_1_3 >= 14
 l23: x_0_3 - 5 z_0_2_3 >= 0
 l24: x_0_2 + 14 z_0_2_3 >= 14
 l25: x_1_1 - 4 z_1_0_1 >= 0
 l26: x_1_0 + 8 z_1_0_1 >= 8
 l27: x_1_2 - 4 z_1_0_2 >= 0
 l28: x_1_0 + 17 z_1_0_2 >= 17
 l29: x_1_2 - 8 z_1_1_2 >= 0
 l30: x_1_1 + 17 z_1_1_2 >= 17
 l31: x_1_3 - 4 z_1_0_3 >= 0
 l32: x_1_0 + 20 z_1_0_3 >= 20
 l33: x_1_3 - 8 z_1_1_3 >= 0
 l34: x_1_1 + 20 z_1_1_3 >= 20
 l35: x_1_3 - 17 z_1_2_3 >= 0
 l36: x_1_2 + 20 z_1_2_3 >= 20
 l37: x_2_1 - 6 z_2_0_1 >= 0
 l38: x_2_0 + 23 z_2_0_1 >= 23
 l39: x_2_2 - 6 z_2_0_2 >= 0
 l40: x_2_0 + 9 z_2_0_2 >= 9
 l41: x_2_2 - 23 z_2_1_2 >= 0
 l42: x_2_1 + 9 z_2_1_2 >= 9
 l43: x_2_3 - 6 z_2_0_3 >= 0
 l44: x_2_0 + 4 z_2_0_3 >= 4
 l45: x_2_3 - 23 z_2_1_3 >= 0
 l46: x_2_1 + 4 z_2_1_3 >= 4
 l47: x_2_3 - 9 z_2_2_3 >= 0
 l48: x_2_2 + 4 z_2_2_3 >= 4
 l49: cmax - x_0_0 - 15 z_0_0_1 >= 1
 l50: cmax - x_0_1 + 6 z_0_0_1 >= 11
 l51: cmax - x_0_0 - 17 z_0_0_2 >= 1
 l52: cmax - x_0_2 + 6 z_0_0_2 >= 11
 l53: cmax - x_0_0 - 16 z_0_0_3 >= 1
 l54: cmax - x_0_3 + 6 z_0_0_3 >= 16
 l55: cmax - x_0_1 - 17 z_0_1_2 >= 5
 l56: cmax - x_0_2 + 15 z_0_1_2 >= 20
 l57: cmax - x_0_1 - 16 z_0_1_3 >= 5
 l58: cmax - x_0_3 + 15 z_0_1_3 >= 25
 l59: cmax - x_0_2 - 16 z_0_2_3 >= 5
 l60: cmax - x_0_3 + 17 z_0_2_3 >= 27
 l61: cmax - x_1_0 - 23 z_1_0_1 >= 3
 l62: cmax - x_1_1 + 5 z_1_0_1 >= 13
 l63: cmax - x_1_0 - 8 z_1_0_2 >= 3
 l64: cmax - x_1_2 + 5 z_1_0_2 >= 13
 l65: cmax - x_1_0 - 6 z_1_0_3 >= 3
 l66: cmax - x_1_3 + 5 z_1_0_3 >= 11
 l67: cmax - x_1_1 - 8 z_1_1_2 >= 8
 l68: cmax - x_1_2 + 23 z_1_1_2 >= 31
 l69: cmax - x_1_1 - 6 z_1_1_3 >= 8
 l70: cmax - x_1_3 + 23 z_1_1_3 >= 29
 l71: cmax - x_1_2 - 6 z_1_2_3 >= 8
 l72: cmax - x_1_3 + 8 z_1_2_3 >= 14
 l73: cmax - x_2_0 - 10 z_2_0_1 >= 2
 l74: cmax - x_2_1 + 2 z_2_0_1 >= 12
 l75: cmax - x_2_0 - 12 z_2_0_2 >= 2
 l76: cmax - x_2_2 + 2 z_2_0_2 >= 6
 l77: cmax - x_2_0 - 20 z_2_0_3 >= 2
 l78: cmax - x_2_3 + 2 z_2_0_3 >= 6
 l79: cmax - x_2_1 - 12 z_2_1_2 >= 10
 l80: cmax - x_2_2 + 10 z_2_1_2 >= 14
 l81: cmax - x_2_1 - 20 z_2_1_3 >= 10
 l82: cmax - x_2_3 + 10 z_2_1_3 >= 14
 l83: cmax - x_2_2 - 20 z_2_2_3 >= 4
 l84: cmax - x_2_3 + 12 z_2_2_3 >= 16
 l85: cmax - x_0_0 >= 6
 l86: cmax - x_0_1 >= 15
 l87: cmax - x_0_2 >= 17
 l88: cmax - x_0_3 >= 16
 l89: cmax - x_1_0 >= 5
 l90: cmax - x_1_1 >= 23
 l91: cmax - x_1_2 >= 8
 l92: cmax - x_1_3 >= 6
 l93: cmax - x_2_0 >= 2
 l94: cmax - x_2_1 >= 10
 l95: cmax - x_2_2 >= 12
 l96: cmax - x_2_3 >= 20
 l97: z_0_0_1 - z_0_0_2 + z_0_1_2 <= 1
 l98: - z_0_0_1 - z_0_1_2 + z_0_0_2 <= 0
 l99: z_0_0_1 - z_0_0_3 + z_0_1_3 <= 1
 l100: - z_0_0_1 - z_0_1_3 + z_0_0_3 <= 0
 l101: - z_0_0_1 + z_0_0_2 - z_0_1_2 <= 0
 l102: - z_0_0_2 + z_0_1_2 + z_0_0_1 <= 1
 l103: z_0_0_2 - z_0_0_3 + z_0_2_3 <= 1
 l104: - z_0_0_2 - z_0_2_3 + z_0_0_3 <= 0
 l105: - z_0_0_1 + z_0_0_3 - z_0_1_3 <= 0
 l106: - z_0_0_3 + z_0_1_3 + z_0_0_1 <= 1
 l107: - z_0_0_2 + z_0_0_3 - z_0_2_3 <= 0
 l108: - z_0_0_3 + z_0_2_3 + z_0_0_2 <= 1
 l109: z_0_0_1 + z_0_1_2 - z_0_0_2 <= 1
 l110: z_0_0_2 - z_0_1_2 - z_0_0_1 <= 0
 l111: z_0_1_2 - z_0_1_3 + z_0_2_3 <= 1
 l112: - z_0_1_2 - z_0_2_3 + z_0_1_3 <= 0
 l113: z_0_0_1 + z_0_1_3 - z_0_0_3 <= 1
 l114: z_0_0_3 - z_0_1_3 - z_0_0_1 <= 0
 l115: - z_0_1_2 + z_0_1_3 - z_0_2_3 <= 0
 l116: - z_0_1_3 + z_0_2_3 + z_0_1_2 <= 1
 l117: z_0_0_2 + z_0_2_3 - z_0_0_3 <= 1
 l118: z_0_0_3 - z_0_2_3 - z_0_0_2 <= 0
 l119: z_0_1_2 + z_0_2_3 - z_0_1_3 <= 1
 l120: z_0_1_3 - z_0_2_3 - z_0_1_2 <= 0
 l121: z_1_0_1 - z_1_0_2 + z_1_1_2 <= 1
 l122: - z_1_0_1 - z_1_1_2 + z_1_0_2 <= 0
 l123: z_1_0_1 - z_1_0_3 + z_1_1_3 <= 1
 l124: - z_1_0_1 - z_1_1_3 + z_1_0_3 <= 0
 l125: - z_1_0_1 + z_1_0_2 - z_1_1_2 <= 0
 l126: - z_1_0_2 + z_1_1_2 + z_1_0_1 <= 1
 l127: z_1_0_2 - z_1_0_3 + z_1_2_3 <= 1
 l128: - z_1_0_2 - z_1_2_3 + z_1_0_3 <= 0
 l129: - z_1_0_1 + z_1_0_3 - z_1_1_3 <= 0
 l130: - z_1_0_3 + z_1_1_3 + z_1_0_1 <= 1
 l131: - z_1_0_2 + z_1_0_3 - z_1_2_3 <= 0
 l132: - z_1_0_3 + z_1_2_3 + z_1_0_2 <= 1
 l133: z_1_0_1 + z_1_1_2 - z_1_0_2 <= 1
 l134: z_1_0_2 - z_1_1_2 - z_1_0_1 <= 0
 l135: z_1_1_2 - z_1_1_3 + z_1_2_3 <= 1
 l136: - z_1_1_2 - z_1_2_3 + z_1_1_3 <= 0
 l137: z_1_0_1 + z_1_1_3 - z_1_0_3 <= 1
 l138: z_1_0_3 - z_1_1_3 - z_1_0_1 <= 0
 l139: - z_1_1_2 + z_1_1_3 - z_1_2_3 <= 0
 l140: - z_1_1_3 + z_1_2_3 + z_1_1_2 <= 1
 l141: z_1_0_2 + z_1_2_3 - z_1_0_3 <= 1
 l142: z_1_0_3 - z_1_2_3 - z_1_0_2 <= 0
 l143: z_1_1_2 + z_1_2_3 - z_1_1_3 <= 1
 l144: z_1_1_3 - z_1_2_3 - z_1_1_2 <= 0
 l145: z_2_0_1 - z_2_0_2 + z_2_1_2 <= 1
 l146: - z_2_0_1 - z_2_1_2 + z_2_0_2 <= 0
 l147: z_2_0_1 - z_2_0_3 + z_2_1_3 <= 1
 l148: - z_2_0_1 - z_2_1_3 + z_2_0_3 <= 0
 l149: - z_2_0_1 + z_2_0_2 - z_2_1_2 <= 0
 l150: - z_2_0_2 + z_2_1_2 + z_2_0_1 <= 1
 l151: z_2_0_2 - z_2_0_3 + z_2_2_3 <= 1
 l152: - z_2_0_2 - z_2_2_3 + z_2_0_3 <= 0
 l153: - z_2_0_1 + z_2_0_3 - z_2_1_3 <= 0
 l154: - z_2_0_3 + z_2_1_3 + z_2_0_1 <= 1
 l155: - z_2_0_2 + z_2_0_3 - z_2_2_3 <= 0
 l156: - z_2_0_3 + z_2_2_3 + z_2_0_2 <= 1
 l157: z_2_0_1 + z_2_1_2 - z_2_0_2 <= 1
 l158: z_2_0_2 - z_2_1_2 - z_2_0_1 <= 0
 l159: z_2_1_2 - z_2_1_3 + z_2_2_3 <= 1
 l160: - z_2_1_2 - z_2_2_3 + z_2_1_3 <= 0
 l161: z_2_0_1 + z_2_1_3 - z_2_0_3 <= 1
 l162: z_2_0_3 - z_2_1_3 - z_2_0_1 <= 0
 l163: - z_2_1_2 + z_2_1_3 - z_2_2_3 <= 0
 l164: - z_2_1_3 + z_2_2_3 + z_2_1_2 <= 1
 l165: z_2_0_2 + z_2_2_3 - z_2_0_3 <= 1
 l166: z_2_0_3 - z_2_2_3 - z_2_0_2 <= 0
 l167: z_2_1_2 + z_2_2_3 - z_2_1_3 <= 1
 l168: z_2_1_3 - z_2_2_3 - z_2_1_2 <= 0

Bounds
       z_0_0_1 <= 1
       z_0_0_2 <= 1
       z_0_0_3 <= 1
       z_0_1_2 <= 1
       z_0_1_3 <= 1
       z_0_2_3 <= 1
       z_1_0_1 <= 1
       z_1_0_2 <= 1
       z_1_0_3 <= 1
       z_1_1_2 <= 1
       z_1_1_3 <= 1
       z_1_2_3 <= 1
       z_2_0_1 <= 1
       z_2_0_2 <= 1
       z_2_0_3 <= 1
       z_2_1_2 <= 1
       z_2_1_3 <= 1
       z_2_2_3 <= 1
 23 <= cmax
End
